NAME : pr144.157605.tour
COMMENT : Cost = 24314_157605
COMMENT : Found by LKH [Keld Helsgaun] Thu Nov 16 17:54:30 2017
TYPE : TOUR
DIMENSION : 153
TOUR_SECTION
1
2
153
26
36
46
47
48
59
60
102
101
100
121
122
123
124
125
126
127
128
129
130
103
88
87
35
27
152
34
33
32
31
49
50
51
52
53
54
55
56
57
114
113
112
111
110
107
106
104
105
108
109
86
85
84
83
82
81
80
79
30
29
28
147
5
6
8
7
9
10
11
12
13
14
15
16
42
41
17
18
21
20
19
22
151
24
99
119
118
117
116
95
96
98
90
150
115
131
132
133
134
135
136
137
138
139
140
141
142
143
144
58
149
23
37
38
39
40
43
44
45
71
72
91
92
93
94
97
89
78
77
76
75
74
73
70
69
68
67
66
65
64
63
62
61
25
148
120
146
4
145
3
-1
EOF
